p cnf 42 74
-1 -2 -3 -6 0
-2 -3 -4 -12 0
-2 -4 -6 -12 0
-3 -4 -6 -12 0
-2 -3 -6 0
1 15 0
-1 -15 0
2 16 0
-2 -16 0
3 17 0
-3 -17 0
4 18 0
-4 -18 0
5 19 0
-5 -19 0
6 20 0
-6 -20 0
7 21 0
-7 -21 0
8 22 0
-8 -22 0
9 23 0
-9 -23 0
10 24 0
-10 -24 0
11 25 0
-11 -25 0
12 26 0
-12 -26 0
13 27 0
-13 -27 0
14 28 0
-14 -28 0
-15 29 0
-16 30 0
-29 30 0
-16 -29 0
-17 31 0
-30 31 0
-17 -30 0
-18 32 0
-31 32 0
-18 -31 0
-19 33 0
-32 33 0
-19 -32 0
-20 34 0
-33 34 0
-20 -33 0
-21 35 0
-34 35 0
-21 -34 0
-22 36 0
-35 36 0
-22 -35 0
-23 37 0
-36 37 0
-23 -36 0
-24 38 0
-37 38 0
-24 -37 0
-25 39 0
-38 39 0
-25 -38 0
-26 40 0
-39 40 0
-26 -39 0
-27 41 0
-40 41 0
-27 -40 0
-28 42 0
-41 42 0
-28 -41 0
-42 0
